VACCINE = Vaccine(1..2);
m = 24;
age = [ADULT, ANCIENT, BABY, BABY, ANCIENT, YOUTH, SENIOR, AGED, CHILD, SENIOR, YOUTH, BABY, BABY, CHILD, SENIOR, YOUTH, ADULT, SENIOR, AGED, ANCIENT, YOUTH, BABY, ADULT, AGED];
gender = [FEMALE, MALE, MALE, FEMALE, FEMALE, MALE, OTHER, FEMALE, FEMALE, OTHER, OTHER, FEMALE, OTHER, OTHER, MALE, OTHER, FEMALE, MALE, OTHER, OTHER, FEMALE, FEMALE, FEMALE, OTHER];
health = [COMPROMISED, COMPROMISED, POOR, COMPROMISED, GOOD, POOR, COMPROMISED, GOOD, GOOD, GOOD, POOR, COMPROMISED, COMPROMISED, POOR, POOR, GOOD, COMPROMISED, GOOD, GOOD, POOR, GOOD, GOOD, POOR, GOOD];
exposure = [HIGH, LOW, HIGH, HIGH, AVERAGE, LOW, LOW, LOW, LOW, HIGH, LOW, AVERAGE, HIGH, AVERAGE, EXTREME, HIGH, HIGH, LOW, HIGH, EXTREME, AVERAGE, EXTREME, AVERAGE, LOW];
size = [5, 9, 9, 9, 10, 9, 8, 8, 5, 8, 6, 8, 9, 6, 9, 6, 7, 7, 10, 7, 8, 5, 5, 8];
minsize = 5;
age_group_min = [1, 1, 1, 1, 0, 0, 0];
age_group_max = [18, 16, 19, 13, 14, 12, 21];
max_people_diff = 107;
max_share_vaccines = 2;
health_information = {15, 18, 23};
exposure_information = {13, 21, 22, 23};